MLT01
Position Depot: Random
Horizon for Depot: Large
Position of customers: Mixt
Distribution of the demand: Small
Width of time windows: Tight
Distribution of the service: Small

VEHICLE 
NUMBER 	 CAPACITY 
 8 	 	 46 
 
CUSTOMER
CUST NO. 	 XCOORD.  	 YCOORD. 	 DEMAND 	 READY TIME 	 DUE DATE 	 SERVICE TIME 
 0 	 	 939 	 	 312 	 	 0 	 	 0 	 	 4338 	 	 0 
  1 	 	 562 	 	 713 	 	 9 	 	 545 	 	 605 	 	 91 
  2 	 	 47 	 	 956 	 	 5 	 	 1027 	 	 1210 	 	 61 
  3 	 	 947 	 	 166 	 	 9 	 	 1244 	 	 1354 	 	 67 
  4 	 	 489 	 	 655 	 	 9 	 	 1994 	 	 2045 	 	 96 
  5 	 	 631 	 	 822 	 	 7 	 	 844 	 	 1003 	 	 60 
  6 	 	 549 	 	 569 	 	 5 	 	 1589 	 	 1759 	 	 93 
  7 	 	 700 	 	 724 	 	 6 	 	 2874 	 	 3043 	 	 95 
  8 	 	 892 	 	 211 	 	 6 	 	 96 	 	 184 	 	 53 
  9 	 	 625 	 	 639 	 	 8 	 	 2879 	 	 3033 	 	 72 
  10 	 	 610 	 	 870 	 	 8 	 	 2026 	 	 2123 	 	 98 
  11 	 	 682 	 	 709 	 	 9 	 	 3361 	 	 3547 	 	 56 
  12 	 	 48 	 	 909 	 	 10 	 	 3071 	 	 3153 	 	 82 
  13 	 	 509 	 	 599 	 	 10 	 	 716 	 	 913 	 	 83 
  14 	 	 971 	 	 67 	 	 6 	 	 4092 	 	 4245 	 	 69 
  15 	 	 650 	 	 685 	 	 7 	 	 2726 	 	 2872 	 	 94 
  16 	 	 547 	 	 644 	 	 7 	 	 1578 	 	 1633 	 	 95 
  17 	 	 619 	 	 895 	 	 8 	 	 625 	 	 731 	 	 96 
  18 	 	 744 	 	 755 	 	 9 	 	 694 	 	 805 	 	 88 
  19 	 	 956 	 	 85 	 	 5 	 	 1982 	 	 2176 	 	 71 
  20 	 	 485 	 	 621 	 	 5 	 	 1474 	 	 1552 	 	 62 
  21 	 	 562 	 	 715 	 	 9 	 	 2126 	 	 2311 	 	 96 
  22 	 	 623 	 	 586 	 	 10 	 	 2105 	 	 2243 	 	 70 
  23 	 	 185 	 	 968 	 	 9 	 	 2004 	 	 2191 	 	 82 
  24 	 	 573 	 	 880 	 	 7 	 	 1795 	 	 1893 	 	 56 
  25 	 	 785 	 	 772 	 	 9 	 	 2736 	 	 2822 	 	 59 
  26 	 	 533 	 	 6 	 	 8 	 	 865 	 	 980 	 	 90 
  27 	 	 659 	 	 458 	 	 9 	 	 260 	 	 347 	 	 67 
  28 	 	 842 	 	 271 	 	 5 	 	 889 	 	 1023 	 	 100 
  29 	 	 732 	 	 6 	 	 9 	 	 1922 	 	 2022 	 	 81 
  30 	 	 183 	 	 880 	 	 10 	 	 3762 	 	 3835 	 	 92 
  31 	 	 414 	 	 372 	 	 5 	 	 4049 	 	 4192 	 	 62 
  32 	 	 285 	 	 803 	 	 8 	 	 3773 	 	 3932 	 	 63 
  33 	 	 539 	 	 967 	 	 10 	 	 1409 	 	 1464 	 	 80 
  34 	 	 867 	 	 290 	 	 6 	 	 4279 	 	 4338 	 	 67 
  35 	 	 118 	 	 986 	 	 8 	 	 3101 	 	 3216 	 	 72 
  36 	 	 212 	 	 963 	 	 5 	 	 3813 	 	 4004 	 	 91 
  37 	 	 10 	 	 178 	 	 9 	 	 3107 	 	 3175 	 	 99 
  38 	 	 265 	 	 297 	 	 7 	 	 1709 	 	 1807 	 	 73 
  39 	 	 919 	 	 456 	 	 6 	 	 1274 	 	 1396 	 	 63 
  40 	 	 349 	 	 53 	 	 7 	 	 2891 	 	 3069 	 	 67 
  41 	 	 262 	 	 998 	 	 5 	 	 3206 	 	 3365 	 	 54 
  42 	 	 854 	 	 694 	 	 8 	 	 308 	 	 430 	 	 95 
  43 	 	 707 	 	 640 	 	 9 	 	 2142 	 	 2269 	 	 94 
  44 	 	 267 	 	 512 	 	 5 	 	 3926 	 	 4062 	 	 66 
  45 	 	 249 	 	 920 	 	 7 	 	 814 	 	 1011 	 	 62 
  46 	 	 673 	 	 460 	 	 7 	 	 2788 	 	 2866 	 	 50 
  47 	 	 459 	 	 322 	 	 10 	 	 439 	 	 528 	 	 100 
  48 	 	 40 	 	 464 	 	 8 	 	 1985 	 	 2178 	 	 71 
  49 	 	 738 	 	 405 	 	 8 	 	 4125 	 	 4321 	 	 79 
  50 	 	 274 	 	 127 	 	 8 	 	 632 	 	 804 	 	 79 
 